164272
1,58,76,24,102,74,14,47,61,103,35,75,32,7,49,37,70,94,78,3,101,38,105,104,67,41,11,95,54,71,36,96,60,39,73,48,85,18,53,84,33,82,51,100,99,68,50,26,34,9,83,57,23,92,80,89,93,12,19,42,81,72,45,25,86,46,77,6,69,88,13,31,65,52,5,55,29,30,98,106,97,8,40,56,20,16,64,90,17,21,62,22,2,63,4,15,91,79,43,87,44,59,66,28,27,10,1